00:00.0 clingo version 5.5.1
00:00.0 Reading from tools/../encodings/CTW_nat_optimal.lp ...
00:02.631 Solving...
29:59.990 UNKNOWN
29:59.990 
29:59.990 TIME LIMIT   : 1
29:59.990 Models       : 0+
29:59.990 Calls        : 1
29:59.990 Time         : 1800.000s (Solving: 1797.36s 1st Model: 0.00s Unsat: 0.00s)
29:59.990 CPU Time     : 1799.973s
